SCIP version 5.0.0 [precision: 8 byte] [memory: block] [mode: optimized] [LP solver: NONE] [GitHash: 3bbd232]
Copyright (C) 2002-2017 Konrad-Zuse-Zentrum fuer Informationstechnik Berlin (ZIB)

External codes: 
  Readline EditLine w  GNU library for command line editing (gnu.org/s/readline)
  CppAD 20160000.1     Algorithmic Differentiation of C++ algorithms developed by B. Bell (www.coin-or.org/CppAD)
  ZLIB 1.2.5           General purpose compression library by J. Gailly and M. Adler (zlib.net)
  GMP 6.1.2            GNU Multiple Precision Arithmetic Library developed by T. Granlund (gmplib.org)

user parameter file <scip.set> not found - using default parameters

read problem <../../Split_data/output/spectf/6/0_sample_spectf.logreg>
============

File name	:	../../Split_data/output/spectf/6/0_sample_spectf.logreg
Problem name 	:	0_sample_spectf
Number of data	:	213
Number of var	:	44
The given data has linear independence

[dim=1] time: 0.013754
[dim=2] time: 0.022212
[dim=3] time: 0.029996
[dim=4] time: 0.036613
[dim=5] time: 0.043602
[dim=6] time: 0.050314
[dim=7] time: 0.056504
[dim=8] time: 0.062214
[dim=9] time: 0.067883
[dim=10] time: 0.073561
[dim=11] Time of forward = 0.079156sec.
AIC: 136.421
k: 10

[dim=44] time: 0.033004
[dim=43] time: 0.052533
[dim=42] time: 0.06945
[dim=41] time: 0.085529
[dim=40] time: 0.10371
[dim=39] time: 0.116238
[dim=38] time: 0.129538
[dim=37] time: 0.145327
[dim=36] time: 0.156594
[dim=35] time: 0.168965
[dim=34] time: 0.181425
[dim=33] time: 0.193159
[dim=32] time: 0.203156
[dim=31] time: 0.214706
[dim=30] time: 0.228518
[dim=29] time: 0.240707
[dim=28] time: 0.25037
[dim=27] time: 0.260048
[dim=26] time: 0.26858
[dim=25] time: 0.276142
[dim=24] time: 0.283031
[dim=23] time: 0.289733
[dim=22] time: 0.297257
[dim=21] time: 0.304234
[dim=20] time: 0.310015
[dim=19] time: 0.315366
[dim=18] time: 0.323049
[dim=17] time: 0.329088
[dim=16] time: 0.333303
[dim=15] time: 0.337601
[dim=14] time: 0.341578
[dim=13] time: 0.345404
[dim=12] time: 0.348753
[dim=11] time: 0.351318
[dim=10] time: 0.353906
[dim=9] Time of backward = 0.355596sec.
AIC: 137.081
k: 10
